NAME evaporation_srl_ilp
* Max problem is converted into Min one
ROWS
 N  OBJ
 L  constraint1_541
 L  constraint1_511
 L  constraint1_512
 L  constraint1_513
 L  constraint1_1081
 L  constraint1_1131
 L  constraint1_1132
 L  constraint1_1133
 L  constraint1_1134
 L  constraint1_281
 L  constraint1_891
 L  constraint1_892
 L  constraint1_161
 L  constraint1_1171
 L  constraint1_321
 L  constraint1_322
 L  constraint2_630
 L  constraint2_631
 L  constraint2_632
 L  constraint2_633
 L  constraint2_540
 L  constraint2_541
 L  constraint2_542
 L  constraint2_543
 L  constraint2_510
 L  constraint2_511
 L  constraint2_512
 L  constraint2_513
 L  constraint2_1080
 L  constraint2_1081
 L  constraint2_1082
 L  constraint2_1083
 L  constraint2_1130
 L  constraint2_1131
 L  constraint2_1132
 L  constraint2_1133
 L  constraint2_480
 L  constraint2_481
 L  constraint2_482
 L  constraint2_483
 L  constraint2_280
 L  constraint2_281
 L  constraint2_282
 L  constraint2_283
 L  constraint2_890
 L  constraint2_891
 L  constraint2_892
 L  constraint2_893
 L  constraint2_1260
 L  constraint2_1261
 L  constraint2_1262
 L  constraint2_1263
 L  constraint2_340
 L  constraint2_341
 L  constraint2_342
 L  constraint2_343
 L  constraint2_160
 L  constraint2_161
 L  constraint2_162
 L  constraint2_163
 L  constraint2_1170
 L  constraint2_1171
 L  constraint2_1172
 L  constraint2_1173
 L  constraint2_320
 L  constraint2_321
 L  constraint2_322
 L  constraint2_323
COLUMNS
    MARKER    'MARKER'                 'INTORG'
    Z_54_1_0  OBJ       -4.4668229631786682e-02
    Z_54_1_0  constraint1_541  1
    Z_54_1_0  constraint2_540  1
    Z_54_1_1  OBJ       -1.5040588650684417e-02
    Z_54_1_1  constraint1_541  1
    Z_54_1_1  constraint2_541  1
    Z_54_1_2  OBJ       -8.6868431245731847e-03
    Z_54_1_2  constraint1_541  1
    Z_54_1_2  constraint2_542  1
    Z_54_1_3  OBJ       -3.8559381660070896e-01
    Z_54_1_3  constraint1_541  1
    Z_54_1_3  constraint2_543  1
    Z_51_1_0  OBJ       -4.6774351046888374e-02
    Z_51_1_0  constraint1_511  1
    Z_51_1_0  constraint2_510  1
    Z_51_1_1  OBJ       -4.9600487058266085e-02
    Z_51_1_1  constraint1_511  1
    Z_51_1_1  constraint2_511  1
    Z_51_1_2  OBJ       -7.2396201699930218e-03
    Z_51_1_2  constraint1_511  1
    Z_51_1_2  constraint2_512  1
    Z_51_1_3  OBJ       -4.4916257347467153e-01
    Z_51_1_3  constraint1_511  1
    Z_51_1_3  constraint2_513  1
    Z_51_2_0  OBJ       -3.7299323638638887e-01
    Z_51_2_0  constraint1_512  1
    Z_51_2_0  constraint2_510  1
    Z_51_2_1  OBJ       -3.1998725778096260e-03
    Z_51_2_1  constraint1_512  1
    Z_51_2_1  constraint2_511  1
    Z_51_2_2  OBJ       -5.6576169294442757e-03
    Z_51_2_2  constraint1_512  1
    Z_51_2_2  constraint2_512  1
    Z_51_2_3  OBJ       -2.3754978961993717e-02
    Z_51_2_3  constraint1_512  1
    Z_51_2_3  constraint2_513  1
    Z_51_3_0  OBJ       -8.8689889138710565e-03
    Z_51_3_0  constraint1_513  1
    Z_51_3_0  constraint2_510  1
    Z_51_3_1  OBJ       -8.8464498338131636e-03
    Z_51_3_1  constraint1_513  1
    Z_51_3_1  constraint2_511  1
    Z_51_3_2  OBJ       -4.6154117368512243e-01
    Z_51_3_2  constraint1_513  1
    Z_51_3_2  constraint2_512  1
    Z_51_3_3  OBJ       -5.2616570114916300e-03
    Z_51_3_3  constraint1_513  1
    Z_51_3_3  constraint2_513  1
    Z_108_1_0  OBJ       -1.0329592131084753e-02
    Z_108_1_0  constraint1_1081  1
    Z_108_1_0  constraint2_1080  1
    Z_108_1_1  OBJ       -2.6455246300949287e-01
    Z_108_1_1  constraint1_1081  1
    Z_108_1_1  constraint2_1081  1
    Z_108_1_2  OBJ       -2.5928597659320152e-02
    Z_108_1_2  constraint1_1081  1
    Z_108_1_2  constraint2_1082  1
    Z_108_1_3  OBJ       -4.7358758184964801e-02
    Z_108_1_3  constraint1_1081  1
    Z_108_1_3  constraint2_1083  1
    Z_113_1_0  OBJ       -3.4968045550440913e-01
    Z_113_1_0  constraint1_1131  1
    Z_113_1_0  constraint2_1130  1
    Z_113_1_1  OBJ       -1.4064523140431995e-02
    Z_113_1_1  constraint1_1131  1
    Z_113_1_1  constraint2_1131  1
    Z_113_1_2  OBJ       -8.6538314443638242e-03
    Z_113_1_2  constraint1_1131  1
    Z_113_1_2  constraint2_1132  1
    Z_113_1_3  OBJ       -3.1462676669115931e-02
    Z_113_1_3  constraint1_1131  1
    Z_113_1_3  constraint2_1133  1
    Z_113_2_0  OBJ       -7.0068143528390081e-04
    Z_113_2_0  constraint1_1132  1
    Z_113_2_0  constraint2_1130  1
    Z_113_2_1  OBJ       -1.3590702755034156e-03
    Z_113_2_1  constraint1_1132  1
    Z_113_2_1  constraint2_1131  1
    Z_113_2_2  OBJ       -4.7582669562552204e-01
    Z_113_2_2  constraint1_1132  1
    Z_113_2_2  constraint2_1132  1
    Z_113_2_3  OBJ       -5.8015835778594390e-03
    Z_113_2_3  constraint1_1132  1
    Z_113_2_3  constraint2_1133  1
    Z_113_3_0  OBJ       -7.0068143528390081e-04
    Z_113_3_0  constraint1_1133  1
    Z_113_3_0  constraint2_1130  1
    Z_113_3_1  OBJ       -1.3590702755034156e-03
    Z_113_3_1  constraint1_1133  1
    Z_113_3_1  constraint2_1131  1
    Z_113_3_2  OBJ       -4.7582669562552204e-01
    Z_113_3_2  constraint1_1133  1
    Z_113_3_2  constraint2_1132  1
    Z_113_3_3  OBJ       -5.8015835778594390e-03
    Z_113_3_3  constraint1_1133  1
    Z_113_3_3  constraint2_1133  1
    Z_113_4_0  OBJ       -3.4968045550440913e-01
    Z_113_4_0  constraint1_1134  1
    Z_113_4_0  constraint2_1130  1
    Z_113_4_1  OBJ       -1.4064523140431995e-02
    Z_113_4_1  constraint1_1134  1
    Z_113_4_1  constraint2_1131  1
    Z_113_4_2  OBJ       -8.6538314443638242e-03
    Z_113_4_2  constraint1_1134  1
    Z_113_4_2  constraint2_1132  1
    Z_113_4_3  OBJ       -3.1462676669115931e-02
    Z_113_4_3  constraint1_1134  1
    Z_113_4_3  constraint2_1133  1
    Z_28_1_0  OBJ       -1.5810428276665678e-02
    Z_28_1_0  constraint1_281  1
    Z_28_1_0  constraint2_280  1
    Z_28_1_1  OBJ       -7.4104891240001081e-04
    Z_28_1_1  constraint1_281  1
    Z_28_1_1  constraint2_281  1
    Z_28_1_2  OBJ       -1.1611629462307094e-02
    Z_28_1_2  constraint1_281  1
    Z_28_1_2  constraint2_282  1
    Z_28_1_3  OBJ       -4.6347061486055269e-01
    Z_28_1_3  constraint1_281  1
    Z_28_1_3  constraint2_283  1
    Z_89_1_0  OBJ       -3.4365800087353415e-01
    Z_89_1_0  constraint1_891  1
    Z_89_1_0  constraint2_890  1
    Z_89_1_1  OBJ       -1.7550517097620122e-02
    Z_89_1_1  constraint1_891  1
    Z_89_1_1  constraint2_891  1
    Z_89_1_2  OBJ       -3.4536777665756802e-03
    Z_89_1_2  constraint1_891  1
    Z_89_1_2  constraint2_892  1
    Z_89_1_3  OBJ       -5.0909762706575858e-02
    Z_89_1_3  constraint1_891  1
    Z_89_1_3  constraint2_893  1
    Z_89_2_0  OBJ       -2.4855169197271487e-03
    Z_89_2_0  constraint1_892  1
    Z_89_2_0  constraint2_890  1
    Z_89_2_1  OBJ       -1.6905394191207845e-03
    Z_89_2_1  constraint1_892  1
    Z_89_2_1  constraint2_891  1
    Z_89_2_2  OBJ       -4.2541550713859472e-01
    Z_89_2_2  constraint1_892  1
    Z_89_2_2  constraint2_892  1
    Z_89_2_3  OBJ       -4.0432231403937568e-03
    Z_89_2_3  constraint1_892  1
    Z_89_2_3  constraint2_893  1
    Z_16_1_0  OBJ       -3.6857415622537637e-03
    Z_16_1_0  constraint1_161  1
    Z_16_1_0  constraint2_160  1
    Z_16_1_1  OBJ       -3.6232507248690204e-03
    Z_16_1_1  constraint1_161  1
    Z_16_1_1  constraint2_161  1
    Z_16_1_2  OBJ       -1.2135430078334242e-01
    Z_16_1_2  constraint1_161  1
    Z_16_1_2  constraint2_162  1
    Z_16_1_3  OBJ       -4.6096462553042927e-01
    Z_16_1_3  constraint1_161  1
    Z_16_1_3  constraint2_163  1
    Z_117_1_0  OBJ       -2.1790048654669325e-02
    Z_117_1_0  constraint1_1171  1
    Z_117_1_0  constraint2_1170  1
    Z_117_1_1  OBJ       -3.7582208125284233e-01
    Z_117_1_1  constraint1_1171  1
    Z_117_1_1  constraint2_1171  1
    Z_117_1_2  OBJ       -3.6954331717224176e-02
    Z_117_1_2  constraint1_1171  1
    Z_117_1_2  constraint2_1172  1
    Z_117_1_3  OBJ       -1.9614708887572229e-02
    Z_117_1_3  constraint1_1171  1
    Z_117_1_3  constraint2_1173  1
    Z_32_1_0  OBJ       -4.4497893623071993e-02
    Z_32_1_0  constraint1_321  1
    Z_32_1_0  constraint2_320  1
    Z_32_1_1  OBJ       -1.8479178398258189e-02
    Z_32_1_1  constraint1_321  1
    Z_32_1_1  constraint2_321  1
    Z_32_1_2  OBJ       -3.3264990154202589e-03
    Z_32_1_2  constraint1_321  1
    Z_32_1_2  constraint2_322  1
    Z_32_1_3  OBJ       -4.3648255884334819e-01
    Z_32_1_3  constraint1_321  1
    Z_32_1_3  constraint2_323  1
    Z_32_2_0  OBJ       -2.0913996356719533e-03
    Z_32_2_0  constraint1_322  1
    Z_32_2_0  constraint2_320  1
    Z_32_2_1  OBJ       -1.8210765782051830e-03
    Z_32_2_1  constraint1_322  1
    Z_32_2_1  constraint2_321  1
    Z_32_2_2  OBJ       -4.6353072600356504e-01
    Z_32_2_2  constraint1_322  1
    Z_32_2_2  constraint2_322  1
    Z_32_2_3  OBJ       -4.2107963669982757e-03
    Z_32_2_3  constraint1_322  1
    Z_32_2_3  constraint2_323  1
    MARKER    'MARKER'                 'INTEND'
RHS
    RHS1      constraint1_541  1
    RHS1      constraint1_511  1
    RHS1      constraint1_512  1
    RHS1      constraint1_513  1
    RHS1      constraint1_1081  1
    RHS1      constraint1_1131  1
    RHS1      constraint1_1132  1
    RHS1      constraint1_1133  1
    RHS1      constraint1_1134  1
    RHS1      constraint1_281  1
    RHS1      constraint1_891  1
    RHS1      constraint1_892  1
    RHS1      constraint1_161  1
    RHS1      constraint1_1171  1
    RHS1      constraint1_321  1
    RHS1      constraint1_322  1
    RHS1      constraint2_630  1
    RHS1      constraint2_631  1
    RHS1      constraint2_632  1
    RHS1      constraint2_633  1
    RHS1      constraint2_540  1
    RHS1      constraint2_541  1
    RHS1      constraint2_542  1
    RHS1      constraint2_543  1
    RHS1      constraint2_510  1
    RHS1      constraint2_511  1
    RHS1      constraint2_512  1
    RHS1      constraint2_513  1
    RHS1      constraint2_1080  1
    RHS1      constraint2_1081  1
    RHS1      constraint2_1082  1
    RHS1      constraint2_1083  1
    RHS1      constraint2_1130  1
    RHS1      constraint2_1131  1
    RHS1      constraint2_1132  1
    RHS1      constraint2_1133  1
    RHS1      constraint2_480  1
    RHS1      constraint2_481  1
    RHS1      constraint2_482  1
    RHS1      constraint2_483  1
    RHS1      constraint2_280  1
    RHS1      constraint2_281  1
    RHS1      constraint2_282  1
    RHS1      constraint2_283  1
    RHS1      constraint2_890  1
    RHS1      constraint2_891  1
    RHS1      constraint2_892  1
    RHS1      constraint2_893  1
    RHS1      constraint2_1260  1
    RHS1      constraint2_1261  1
    RHS1      constraint2_1262  1
    RHS1      constraint2_1263  1
    RHS1      constraint2_340  1
    RHS1      constraint2_341  1
    RHS1      constraint2_342  1
    RHS1      constraint2_343  1
    RHS1      constraint2_160  1
    RHS1      constraint2_161  1
    RHS1      constraint2_162  1
    RHS1      constraint2_163  1
    RHS1      constraint2_1170  1
    RHS1      constraint2_1171  1
    RHS1      constraint2_1172  1
    RHS1      constraint2_1173  1
    RHS1      constraint2_320  1
    RHS1      constraint2_321  1
    RHS1      constraint2_322  1
    RHS1      constraint2_323  1
BOUNDS
 UP BND1      Z_54_1_0  1
 UP BND1      Z_54_1_1  1
 UP BND1      Z_54_1_2  1
 UP BND1      Z_54_1_3  1
 UP BND1      Z_51_1_0  1
 UP BND1      Z_51_1_1  1
 UP BND1      Z_51_1_2  1
 UP BND1      Z_51_1_3  1
 UP BND1      Z_51_2_0  1
 UP BND1      Z_51_2_1  1
 UP BND1      Z_51_2_2  1
 UP BND1      Z_51_2_3  1
 UP BND1      Z_51_3_0  1
 UP BND1      Z_51_3_1  1
 UP BND1      Z_51_3_2  1
 UP BND1      Z_51_3_3  1
 UP BND1      Z_108_1_0  1
 UP BND1      Z_108_1_1  1
 UP BND1      Z_108_1_2  1
 UP BND1      Z_108_1_3  1
 UP BND1      Z_113_1_0  1
 UP BND1      Z_113_1_1  1
 UP BND1      Z_113_1_2  1
 UP BND1      Z_113_1_3  1
 UP BND1      Z_113_2_0  1
 UP BND1      Z_113_2_1  1
 UP BND1      Z_113_2_2  1
 UP BND1      Z_113_2_3  1
 UP BND1      Z_113_3_0  1
 UP BND1      Z_113_3_1  1
 UP BND1      Z_113_3_2  1
 UP BND1      Z_113_3_3  1
 UP BND1      Z_113_4_0  1
 UP BND1      Z_113_4_1  1
 UP BND1      Z_113_4_2  1
 UP BND1      Z_113_4_3  1
 UP BND1      Z_28_1_0  1
 UP BND1      Z_28_1_1  1
 UP BND1      Z_28_1_2  1
 UP BND1      Z_28_1_3  1
 UP BND1      Z_89_1_0  1
 UP BND1      Z_89_1_1  1
 UP BND1      Z_89_1_2  1
 UP BND1      Z_89_1_3  1
 UP BND1      Z_89_2_0  1
 UP BND1      Z_89_2_1  1
 UP BND1      Z_89_2_2  1
 UP BND1      Z_89_2_3  1
 UP BND1      Z_16_1_0  1
 UP BND1      Z_16_1_1  1
 UP BND1      Z_16_1_2  1
 UP BND1      Z_16_1_3  1
 UP BND1      Z_117_1_0  1
 UP BND1      Z_117_1_1  1
 UP BND1      Z_117_1_2  1
 UP BND1      Z_117_1_3  1
 UP BND1      Z_32_1_0  1
 UP BND1      Z_32_1_1  1
 UP BND1      Z_32_1_2  1
 UP BND1      Z_32_1_3  1
 UP BND1      Z_32_2_0  1
 UP BND1      Z_32_2_1  1
 UP BND1      Z_32_2_2  1
 UP BND1      Z_32_2_3  1
QUADOBJ
    Z_54_1_0  Z_51_2_0  -1.3516257256427122e-01
    Z_54_1_0  Z_51_3_0  -7.0069204152249140e-02
    Z_54_1_0  Z_108_1_0  -3.0435084569250631e-01
    Z_54_1_0  Z_113_1_0  -1
    Z_54_1_0  Z_113_3_0  -2.4498465648941570e-01
    Z_54_1_0  Z_113_4_0  -3.1847785554559660e-01
    Z_54_1_0  Z_28_1_0  -1.7644291367477505e-01
    Z_54_1_0  Z_89_1_0  -4.2847769254503842e-01
    Z_54_1_0  Z_89_2_0  -2.1052631578947367e-01
    Z_54_1_0  Z_16_1_0  -4.4282052976670316e-01
    Z_54_1_0  Z_117_1_0  -2.4498465648941570e-01
    Z_54_1_0  Z_32_2_0  -2.1052631578947367e-01
    Z_54_1_1  Z_51_2_1  -1.3516257256427122e-01
    Z_54_1_1  Z_51_3_1  -7.0069204152249140e-02
    Z_54_1_1  Z_108_1_1  -3.0435084569250631e-01
    Z_54_1_1  Z_113_1_1  -1
    Z_54_1_1  Z_113_3_1  -2.4498465648941570e-01
    Z_54_1_1  Z_113_4_1  -3.1847785554559660e-01
    Z_54_1_1  Z_28_1_1  -1.7644291367477505e-01
    Z_54_1_1  Z_89_1_1  -4.2847769254503842e-01
    Z_54_1_1  Z_89_2_1  -2.1052631578947367e-01
    Z_54_1_1  Z_16_1_1  -4.4282052976670316e-01
    Z_54_1_1  Z_117_1_1  -2.4498465648941570e-01
    Z_54_1_1  Z_32_2_1  -2.1052631578947367e-01
    Z_54_1_2  Z_51_2_2  -1.3516257256427122e-01
    Z_54_1_2  Z_51_3_2  -7.0069204152249140e-02
    Z_54_1_2  Z_108_1_2  -3.0435084569250631e-01
    Z_54_1_2  Z_113_1_2  -1
    Z_54_1_2  Z_113_3_2  -2.4498465648941570e-01
    Z_54_1_2  Z_113_4_2  -3.1847785554559660e-01
    Z_54_1_2  Z_28_1_2  -1.7644291367477505e-01
    Z_54_1_2  Z_89_1_2  -4.2847769254503842e-01
    Z_54_1_2  Z_89_2_2  -2.1052631578947367e-01
    Z_54_1_2  Z_16_1_2  -4.4282052976670316e-01
    Z_54_1_2  Z_117_1_2  -2.4498465648941570e-01
    Z_54_1_2  Z_32_2_2  -2.1052631578947367e-01
    Z_54_1_3  Z_51_2_3  -1.3516257256427122e-01
    Z_54_1_3  Z_51_3_3  -7.0069204152249140e-02
    Z_54_1_3  Z_108_1_3  -3.0435084569250631e-01
    Z_54_1_3  Z_113_1_3  -1
    Z_54_1_3  Z_113_3_3  -2.4498465648941570e-01
    Z_54_1_3  Z_113_4_3  -3.1847785554559660e-01
    Z_54_1_3  Z_28_1_3  -1.7644291367477505e-01
    Z_54_1_3  Z_89_1_3  -4.2847769254503842e-01
    Z_54_1_3  Z_89_2_3  -2.1052631578947367e-01
    Z_54_1_3  Z_16_1_3  -4.4282052976670316e-01
    Z_54_1_3  Z_117_1_3  -2.4498465648941570e-01
    Z_54_1_3  Z_32_2_3  -2.1052631578947367e-01
    Z_51_1_0  Z_108_1_0  -1
    Z_51_1_0  Z_117_1_0  -5.3445485027170767e-02
    Z_51_1_1  Z_108_1_1  -1
    Z_51_1_1  Z_117_1_1  -5.3445485027170767e-02
    Z_51_1_2  Z_108_1_2  -1
    Z_51_1_2  Z_117_1_2  -5.3445485027170767e-02
    Z_51_1_3  Z_108_1_3  -1
    Z_51_1_3  Z_117_1_3  -5.3445485027170767e-02
    Z_51_2_0  Z_108_1_0  -1.3516257256427122e-01
    Z_51_2_0  Z_113_1_0  -1.3516257256427122e-01
    Z_51_2_0  Z_113_3_0  -1
    Z_51_2_0  Z_113_4_0  -1
    Z_51_2_0  Z_28_1_0  -1.3516257256427122e-01
    Z_51_2_0  Z_89_1_0  -1
    Z_51_2_0  Z_16_1_0  -1.3516257256427122e-01
    Z_51_2_0  Z_117_1_0  -1.3516257256427122e-01
    Z_51_2_1  Z_108_1_1  -1.3516257256427122e-01
    Z_51_2_1  Z_113_1_1  -1.3516257256427122e-01
    Z_51_2_1  Z_113_3_1  -1
    Z_51_2_1  Z_113_4_1  -1
    Z_51_2_1  Z_28_1_1  -1.3516257256427122e-01
    Z_51_2_1  Z_89_1_1  -1
    Z_51_2_1  Z_16_1_1  -1.3516257256427122e-01
    Z_51_2_1  Z_117_1_1  -1.3516257256427122e-01
    Z_51_2_2  Z_108_1_2  -1.3516257256427122e-01
    Z_51_2_2  Z_113_1_2  -1.3516257256427122e-01
    Z_51_2_2  Z_113_3_2  -1
    Z_51_2_2  Z_113_4_2  -1
    Z_51_2_2  Z_28_1_2  -1.3516257256427122e-01
    Z_51_2_2  Z_89_1_2  -1
    Z_51_2_2  Z_16_1_2  -1.3516257256427122e-01
    Z_51_2_2  Z_117_1_2  -1.3516257256427122e-01
    Z_51_2_3  Z_108_1_3  -1.3516257256427122e-01
    Z_51_2_3  Z_113_1_3  -1.3516257256427122e-01
    Z_51_2_3  Z_113_3_3  -1
    Z_51_2_3  Z_113_4_3  -1
    Z_51_2_3  Z_28_1_3  -1.3516257256427122e-01
    Z_51_2_3  Z_89_1_3  -1
    Z_51_2_3  Z_16_1_3  -1.3516257256427122e-01
    Z_51_2_3  Z_117_1_3  -1.3516257256427122e-01
    Z_51_3_0  Z_108_1_0  -2.0661157024793389e-03
    Z_51_3_0  Z_113_1_0  -2.0661157024793389e-03
    Z_51_3_0  Z_113_3_0  -2.0661157024793389e-03
    Z_51_3_0  Z_113_4_0  -2.0661157024793389e-03
    Z_51_3_0  Z_28_1_0  -2.0661157024793389e-03
    Z_51_3_0  Z_89_1_0  -2.0661157024793389e-03
    Z_51_3_0  Z_89_2_0  -5.8465150766188821e-02
    Z_51_3_0  Z_16_1_0  -2.0661157024793389e-03
    Z_51_3_0  Z_117_1_0  -2.0661157024793389e-03
    Z_51_3_0  Z_32_2_0  -5.8465150766188821e-02
    Z_51_3_1  Z_108_1_1  -2.0661157024793389e-03
    Z_51_3_1  Z_113_1_1  -2.0661157024793389e-03
    Z_51_3_1  Z_113_3_1  -2.0661157024793389e-03
    Z_51_3_1  Z_113_4_1  -2.0661157024793389e-03
    Z_51_3_1  Z_28_1_1  -2.0661157024793389e-03
    Z_51_3_1  Z_89_1_1  -2.0661157024793389e-03
    Z_51_3_1  Z_89_2_1  -5.8465150766188821e-02
    Z_51_3_1  Z_16_1_1  -2.0661157024793389e-03
    Z_51_3_1  Z_117_1_1  -2.0661157024793389e-03
    Z_51_3_1  Z_32_2_1  -5.8465150766188821e-02
    Z_51_3_2  Z_108_1_2  -2.0661157024793389e-03
    Z_51_3_2  Z_113_1_2  -2.0661157024793389e-03
    Z_51_3_2  Z_113_3_2  -2.0661157024793389e-03
    Z_51_3_2  Z_113_4_2  -2.0661157024793389e-03
    Z_51_3_2  Z_28_1_2  -2.0661157024793389e-03
    Z_51_3_2  Z_89_1_2  -2.0661157024793389e-03
    Z_51_3_2  Z_89_2_2  -5.8465150766188821e-02
    Z_51_3_2  Z_16_1_2  -2.0661157024793389e-03
    Z_51_3_2  Z_117_1_2  -2.0661157024793389e-03
    Z_51_3_2  Z_32_2_2  -5.8465150766188821e-02
    Z_51_3_3  Z_108_1_3  -2.0661157024793389e-03
    Z_51_3_3  Z_113_1_3  -2.0661157024793389e-03
    Z_51_3_3  Z_113_3_3  -2.0661157024793389e-03
    Z_51_3_3  Z_113_4_3  -2.0661157024793389e-03
    Z_51_3_3  Z_28_1_3  -2.0661157024793389e-03
    Z_51_3_3  Z_89_1_3  -2.0661157024793389e-03
    Z_51_3_3  Z_89_2_3  -5.8465150766188821e-02
    Z_51_3_3  Z_16_1_3  -2.0661157024793389e-03
    Z_51_3_3  Z_117_1_3  -2.0661157024793389e-03
    Z_51_3_3  Z_32_2_3  -5.8465150766188821e-02
    Z_108_1_0  Z_113_1_0  -1
    Z_108_1_0  Z_113_2_0  -1
    Z_108_1_0  Z_113_3_0  -5.4647623602603079e-01
    Z_108_1_0  Z_113_4_0  -3.1847785554559660e-01
    Z_108_1_0  Z_28_1_0  -1.7820282811942789e-01
    Z_108_1_0  Z_89_1_0  -4.2847769254503842e-01
    Z_108_1_0  Z_89_2_0  -2.2916666666666669e-01
    Z_108_1_0  Z_16_1_0  -4.4282052976670316e-01
    Z_108_1_0  Z_117_1_0  -5.0465192842436613e-01
    Z_108_1_0  Z_32_2_0  -2.2916666666666669e-01
    Z_108_1_1  Z_113_1_1  -1
    Z_108_1_1  Z_113_2_1  -1
    Z_108_1_1  Z_113_3_1  -5.4647623602603079e-01
    Z_108_1_1  Z_113_4_1  -3.1847785554559660e-01
    Z_108_1_1  Z_28_1_1  -1.7820282811942789e-01
    Z_108_1_1  Z_89_1_1  -4.2847769254503842e-01
    Z_108_1_1  Z_89_2_1  -2.2916666666666669e-01
    Z_108_1_1  Z_16_1_1  -4.4282052976670316e-01
    Z_108_1_1  Z_117_1_1  -5.0465192842436613e-01
    Z_108_1_1  Z_32_2_1  -2.2916666666666669e-01
    Z_108_1_2  Z_113_1_2  -1
    Z_108_1_2  Z_113_2_2  -1
    Z_108_1_2  Z_113_3_2  -5.4647623602603079e-01
    Z_108_1_2  Z_113_4_2  -3.1847785554559660e-01
    Z_108_1_2  Z_28_1_2  -1.7820282811942789e-01
    Z_108_1_2  Z_89_1_2  -4.2847769254503842e-01
    Z_108_1_2  Z_89_2_2  -2.2916666666666669e-01
    Z_108_1_2  Z_16_1_2  -4.4282052976670316e-01
    Z_108_1_2  Z_117_1_2  -5.0465192842436613e-01
    Z_108_1_2  Z_32_2_2  -2.2916666666666669e-01
    Z_108_1_3  Z_113_1_3  -1
    Z_108_1_3  Z_113_2_3  -1
    Z_108_1_3  Z_113_3_3  -5.4647623602603079e-01
    Z_108_1_3  Z_113_4_3  -3.1847785554559660e-01
    Z_108_1_3  Z_28_1_3  -1.7820282811942789e-01
    Z_108_1_3  Z_89_1_3  -4.2847769254503842e-01
    Z_108_1_3  Z_89_2_3  -2.2916666666666669e-01
    Z_108_1_3  Z_16_1_3  -4.4282052976670316e-01
    Z_108_1_3  Z_117_1_3  -5.0465192842436613e-01
    Z_108_1_3  Z_32_2_3  -2.2916666666666669e-01
    Z_113_1_0  Z_28_1_0  -1
    Z_113_1_0  Z_89_1_0  -1
    Z_113_1_0  Z_89_2_0  -4.1322314049586785e-02
    Z_113_1_0  Z_16_1_0  -1
    Z_113_1_0  Z_117_1_0  -1
    Z_113_1_0  Z_32_2_0  -4.1322314049586785e-02
    Z_113_1_1  Z_28_1_1  -1
    Z_113_1_1  Z_89_1_1  -1
    Z_113_1_1  Z_89_2_1  -4.1322314049586785e-02
    Z_113_1_1  Z_16_1_1  -1
    Z_113_1_1  Z_117_1_1  -1
    Z_113_1_1  Z_32_2_1  -4.1322314049586785e-02
    Z_113_1_2  Z_28_1_2  -1
    Z_113_1_2  Z_89_1_2  -1
    Z_113_1_2  Z_89_2_2  -4.1322314049586785e-02
    Z_113_1_2  Z_16_1_2  -1
    Z_113_1_2  Z_117_1_2  -1
    Z_113_1_2  Z_32_2_2  -4.1322314049586785e-02
    Z_113_1_3  Z_28_1_3  -1
    Z_113_1_3  Z_89_1_3  -1
    Z_113_1_3  Z_89_2_3  -4.1322314049586785e-02
    Z_113_1_3  Z_16_1_3  -1
    Z_113_1_3  Z_117_1_3  -1
    Z_113_1_3  Z_32_2_3  -4.1322314049586785e-02
    Z_113_2_0  Z_89_2_0  -1.2456536177527734e-01
    Z_113_2_0  Z_32_2_0  -1.2456536177527734e-01
    Z_113_2_1  Z_89_2_1  -1.2456536177527734e-01
    Z_113_2_1  Z_32_2_1  -1.2456536177527734e-01
    Z_113_2_2  Z_89_2_2  -1.2456536177527734e-01
    Z_113_2_2  Z_32_2_2  -1.2456536177527734e-01
    Z_113_2_3  Z_89_2_3  -1.2456536177527734e-01
    Z_113_2_3  Z_32_2_3  -1.2456536177527734e-01
    Z_113_3_0  Z_28_1_0  -1.7644291367477505e-01
    Z_113_3_0  Z_89_1_0  -1
    Z_113_3_0  Z_89_2_0  -1.2456536177527734e-01
    Z_113_3_0  Z_16_1_0  -4.4282052976670316e-01
    Z_113_3_0  Z_117_1_0  -2.8923594952734416e-01
    Z_113_3_0  Z_32_2_0  -1.2456536177527734e-01
    Z_113_3_1  Z_28_1_1  -1.7644291367477505e-01
    Z_113_3_1  Z_89_1_1  -1
    Z_113_3_1  Z_89_2_1  -1.2456536177527734e-01
    Z_113_3_1  Z_16_1_1  -4.4282052976670316e-01
    Z_113_3_1  Z_117_1_1  -2.8923594952734416e-01
    Z_113_3_1  Z_32_2_1  -1.2456536177527734e-01
    Z_113_3_2  Z_28_1_2  -1.7644291367477505e-01
    Z_113_3_2  Z_89_1_2  -1
    Z_113_3_2  Z_89_2_2  -1.2456536177527734e-01
    Z_113_3_2  Z_16_1_2  -4.4282052976670316e-01
    Z_113_3_2  Z_117_1_2  -2.8923594952734416e-01
    Z_113_3_2  Z_32_2_2  -1.2456536177527734e-01
    Z_113_3_3  Z_28_1_3  -1.7644291367477505e-01
    Z_113_3_3  Z_89_1_3  -1
    Z_113_3_3  Z_89_2_3  -1.2456536177527734e-01
    Z_113_3_3  Z_16_1_3  -4.4282052976670316e-01
    Z_113_3_3  Z_117_1_3  -2.8923594952734416e-01
    Z_113_3_3  Z_32_2_3  -1.2456536177527734e-01
    Z_113_4_0  Z_28_1_0  -3.1847785554559660e-01
    Z_113_4_0  Z_89_1_0  -1
    Z_113_4_0  Z_89_2_0  -4.1322314049586785e-02
    Z_113_4_0  Z_16_1_0  -4.4282052976670316e-01
    Z_113_4_0  Z_117_1_0  -5.7520029154004326e-01
    Z_113_4_0  Z_32_2_0  -4.1322314049586785e-02
    Z_113_4_1  Z_28_1_1  -3.1847785554559660e-01
    Z_113_4_1  Z_89_1_1  -1
    Z_113_4_1  Z_89_2_1  -4.1322314049586785e-02
    Z_113_4_1  Z_16_1_1  -4.4282052976670316e-01
    Z_113_4_1  Z_117_1_1  -5.7520029154004326e-01
    Z_113_4_1  Z_32_2_1  -4.1322314049586785e-02
    Z_113_4_2  Z_28_1_2  -3.1847785554559660e-01
    Z_113_4_2  Z_89_1_2  -1
    Z_113_4_2  Z_89_2_2  -4.1322314049586785e-02
    Z_113_4_2  Z_16_1_2  -4.4282052976670316e-01
    Z_113_4_2  Z_117_1_2  -5.7520029154004326e-01
    Z_113_4_2  Z_32_2_2  -4.1322314049586785e-02
    Z_113_4_3  Z_28_1_3  -3.1847785554559660e-01
    Z_113_4_3  Z_89_1_3  -1
    Z_113_4_3  Z_89_2_3  -4.1322314049586785e-02
    Z_113_4_3  Z_16_1_3  -4.4282052976670316e-01
    Z_113_4_3  Z_117_1_3  -5.7520029154004326e-01
    Z_113_4_3  Z_32_2_3  -4.1322314049586785e-02
    Z_28_1_0  Z_89_1_0  -4.2847769254503842e-01
    Z_28_1_0  Z_89_2_0  -4.1322314049586785e-02
    Z_28_1_0  Z_16_1_0  -1
    Z_28_1_0  Z_117_1_0  -8.8273211394431964e-02
    Z_28_1_0  Z_32_2_0  -4.1322314049586785e-02
    Z_28_1_1  Z_89_1_1  -4.2847769254503842e-01
    Z_28_1_1  Z_89_2_1  -4.1322314049586785e-02
    Z_28_1_1  Z_16_1_1  -1
    Z_28_1_1  Z_117_1_1  -8.8273211394431964e-02
    Z_28_1_1  Z_32_2_1  -4.1322314049586785e-02
    Z_28_1_2  Z_89_1_2  -4.2847769254503842e-01
    Z_28_1_2  Z_89_2_2  -4.1322314049586785e-02
    Z_28_1_2  Z_16_1_2  -1
    Z_28_1_2  Z_117_1_2  -8.8273211394431964e-02
    Z_28_1_2  Z_32_2_2  -4.1322314049586785e-02
    Z_28_1_3  Z_89_1_3  -4.2847769254503842e-01
    Z_28_1_3  Z_89_2_3  -4.1322314049586785e-02
    Z_28_1_3  Z_16_1_3  -1
    Z_28_1_3  Z_117_1_3  -8.8273211394431964e-02
    Z_28_1_3  Z_32_2_3  -4.1322314049586785e-02
    Z_89_1_0  Z_16_1_0  -4.4282052976670316e-01
    Z_89_1_0  Z_117_1_0  -4.2847769254503842e-01
    Z_89_1_0  Z_32_2_0  -4.1322314049586785e-02
    Z_89_1_1  Z_16_1_1  -4.4282052976670316e-01
    Z_89_1_1  Z_117_1_1  -4.2847769254503842e-01
    Z_89_1_1  Z_32_2_1  -4.1322314049586785e-02
    Z_89_1_2  Z_16_1_2  -4.4282052976670316e-01
    Z_89_1_2  Z_117_1_2  -4.2847769254503842e-01
    Z_89_1_2  Z_32_2_2  -4.1322314049586785e-02
    Z_89_1_3  Z_16_1_3  -4.4282052976670316e-01
    Z_89_1_3  Z_117_1_3  -4.2847769254503842e-01
    Z_89_1_3  Z_32_2_3  -4.1322314049586785e-02
    Z_89_2_0  Z_16_1_0  -4.1322314049586785e-02
    Z_89_2_0  Z_117_1_0  -1.7470211185740117e-01
    Z_89_2_0  Z_32_2_0  -1
    Z_89_2_1  Z_16_1_1  -4.1322314049586785e-02
    Z_89_2_1  Z_117_1_1  -1.7470211185740117e-01
    Z_89_2_1  Z_32_2_1  -1
    Z_89_2_2  Z_16_1_2  -4.1322314049586785e-02
    Z_89_2_2  Z_117_1_2  -1.7470211185740117e-01
    Z_89_2_2  Z_32_2_2  -1
    Z_89_2_3  Z_16_1_3  -4.1322314049586785e-02
    Z_89_2_3  Z_117_1_3  -1.7470211185740117e-01
    Z_89_2_3  Z_32_2_3  -1
    Z_16_1_0  Z_117_1_0  -2.2154015380827888e-01
    Z_16_1_0  Z_32_2_0  -4.1322314049586785e-02
    Z_16_1_1  Z_117_1_1  -2.2154015380827888e-01
    Z_16_1_1  Z_32_2_1  -4.1322314049586785e-02
    Z_16_1_2  Z_117_1_2  -2.2154015380827888e-01
    Z_16_1_2  Z_32_2_2  -4.1322314049586785e-02
    Z_16_1_3  Z_117_1_3  -2.2154015380827888e-01
    Z_16_1_3  Z_32_2_3  -4.1322314049586785e-02
    Z_117_1_0  Z_32_1_0  -1.4641226066415683e-01
    Z_117_1_0  Z_32_2_0  -1.7470211185740117e-01
    Z_117_1_1  Z_32_1_1  -1.4641226066415683e-01
    Z_117_1_1  Z_32_2_1  -1.7470211185740117e-01
    Z_117_1_2  Z_32_1_2  -1.4641226066415683e-01
    Z_117_1_2  Z_32_2_2  -1.7470211185740117e-01
    Z_117_1_3  Z_32_1_3  -1.4641226066415683e-01
    Z_117_1_3  Z_32_2_3  -1.7470211185740117e-01
ENDATA
